
Gurobi 6.0.4 (win64) logging started 06/12/15 17:20:07

Read LP format model from file E:\Eigene Dateien\Downloads\Michi shit\VRPTWMS-master\VRPTWMS\instances\mip\fuel\N8-C_DV100-C_SV25_F5_10_No_1.lp
Reading time = 0.00 seconds
(null): 417 rows, 208 columns, 1715 nonzeros
Optimize a model with 417 rows, 208 columns and 1715 nonzeros
Model has 576 quadratic constraints
WARNING: Only barrier available for SOCP models
Coefficient statistics:
  Matrix range    [1e+00, 1e+02]
  Objective range [6e+00, 1e+03]
  Bounds range    [1e+00, 1e+02]
  RHS range       [1e+00, 1e+02]
Presolve removed 55 rows and 34 columns
Presolve time: 0.03s
Presolved: 1155 rows, 589 columns, 5738 nonzeros
Variable types: 378 continuous, 211 integer (169 binary)
Found heuristic solution: objective 10563.840000
Optimize a model with 1155 rows, 589 columns and 5738 nonzeros
Coefficient statistics:
  Matrix range    [1e+00, 3e+03]
  Objective range [6e+00, 1e+03]
  Bounds range    [1e+00, 1e+02]
  RHS range       [1e+00, 8e+02]

Concurrent LP optimizer: dual simplex and barrier
Showing barrier log only...

Presolve removed 136 rows and 84 columns
Presolved: 1019 rows, 507 columns, 5117 nonzeros

Root barrier log...

Ordering time: 0.00s

Barrier performed 0 iterations in 0.05 seconds
Barrier solve interrupted - model solved by another algorithm


Solved with dual simplex
Solved in 55 iterations and 0.05 seconds
Optimal objective  1.175269154e+03

Root relaxation: objective 1.175269e+03, 55 iterations, 0.03 seconds

    Nodes    |    Current Node    |     Objective Bounds      |     Work
 Expl Unexpl |  Obj  Depth IntInf | Incumbent    BestBd   Gap | It/Node Time

     0     0 1175.26915    0   24 10563.8400 1175.26915  88.9%     -    0s
H    0     0                    9529.7300000 1175.26915  87.7%     -    0s
     0     0 1537.99667    0   36 9529.73000 1537.99667  83.9%     -    0s
     0     0 2164.07000    0   10 9529.73000 2164.07000  77.3%     -    0s
H    0     0                    6398.7300000 2164.07000  66.2%     -    0s
     0     0 2166.79786    0   34 6398.73000 2166.79786  66.1%     -    0s
     0     0 2167.00195    0   34 6398.73000 2167.00195  66.1%     -    0s
     0     0 2168.77268    0   49 6398.73000 2168.77268  66.1%     -    0s
     0     0 2169.02277    0   51 6398.73000 2169.02277  66.1%     -    0s
     0     0 2169.02277    0   49 6398.73000 2169.02277  66.1%     -    0s
H    0     0                    4292.9900000 2169.02277  49.5%     -    0s
     0     0 2169.02277    0   49 4292.99000 2169.02277  49.5%     -    0s
     0     2 2169.02277    0   49 4292.99000 2169.02277  49.5%     -    0s
H  143    78                    3245.1200000 2183.80636  32.7%  21.0    0s

Cutting planes:
  Learned: 2
  Gomory: 2
  Cover: 274
  Implied bound: 165
  Clique: 7
  MIR: 40
  GUB cover: 2
  Zero half: 3

Explored 7619 nodes (124302 simplex iterations) in 2.00 seconds
Thread count was 4 (of 4 available processors)

Optimal solution found (tolerance 1.00e-04)
Best objective 3.245120000000e+03, best bound 3.245120000000e+03, gap 0.0%
k_c1	1.0
k_c2	100.0
k_c3	8.0
k_c4	90.0
k_c5	96.0
k_c6	100.0
k_c7	96.0
k_c8	3.0
k_dN	-0.0
o_1	-0.0
o_2	1.0
o_3	-0.0
o_4	0.0
o_5	-0.0
o_6	-0.0
o_7	-0.0
o_8	-0.0
p_1	-0.0
p_2	1.0
p_3	-0.0
p_4	1.0
p_5	-0.0
p_6	-0.0
p_7	-0.0
p_8	-0.0
phi_c1	3.0
phi_c2	2.0
phi_c3	4.0
phi_c4	-0.0
phi_c5	4.0
phi_c6	3.0
phi_c7	2.0
phi_c8	3.0
phi_dN	-0.0
pi_c1	25.0
pi_c2	25.0
pi_c3	25.0
pi_c4	22.0
pi_c5	25.0
pi_c6	25.0
pi_c7	25.0
pi_c8	25.0
pi_dN	-0.0
tauD_c1	84.0
tauD_c2	21.0
tauD_c3	75.0
tauD_c4	45.0
tauD_c5	45.0
tauD_c6	19.0
tauD_c7	30.0
tauD_c8	84.0
tauD_d0	-0.0
tauD_dN	100.0
tauS_c1	83.0
tauS_c2	17.0
tauS_c3	84.0
tauS_c4	44.0
tauS_c5	84.0
tauS_c6	88.0
tauS_c7	66.0
tauS_c8	82.0
tauS_d0	-0.0
tauS_dN	72.0
x_c1_dN	1.0
x_c2_c5	1.0
x_c3_c8	1.0
x_c4_c3	1.0
x_c5_c1	1.0
x_c6_c7	1.0
x_c7_c4	1.0
x_c8_dN	1.0
x_d0_c2	1.0
x_d0_c6	1.0
z_c2_c4	1.0
z_c4_dN	1.0
z_d0_c2	1.0
